8
28
0 1 509
0 2 898
0 3 715
0 4 61
0 5 550
0 6 761
0 7 935
1 2 415
1 3 1148
1 4 570
1 5 41
1 6 708
1 7 882
2 3 1537
2 4 959
2 5 438
2 6 757
2 7 743
3 4 686
3 5 1189
3 6 780
3 7 794
4 5 611
4 6 732
4 7 906
5 6 731
5 7 905
6 7 174
